p edge 51 131
e 1 2
e 1 6
e 1 19
e 1 20
e 1 24
e 1 40
e 1 51
e 2 8
e 2 18
e 2 45
e 2 46
e 2 49
e 3 12
e 3 22
e 3 37
e 3 45
e 3 48
e 3 49
e 4 18
e 4 20
e 4 26
e 4 28
e 4 49
e 5 35
e 5 36
e 5 47
e 5 50
e 6 13
e 6 14
e 6 18
e 6 24
e 6 37
e 7 9
e 7 10
e 7 26
e 7 32
e 7 35
e 8 43
e 8 44
e 8 50
e 9 11
e 10 18
e 10 22
e 10 26
e 10 41
e 10 45
e 11 24
e 11 26
e 11 35
e 11 39
e 11 42
e 11 44
e 12 13
e 12 41
e 12 46
e 13 42
e 13 44
e 13 49
e 15 19
e 15 37
e 15 48
e 15 51
e 16 24
e 16 27
e 16 40
e 16 41
e 17 31
e 17 39
e 17 41
e 17 43
e 17 48
e 18 19
e 18 38
e 19 22
e 19 38
e 19 40
e 20 22
e 20 25
e 20 30
e 20 48
e 21 27
e 21 30
e 21 33
e 21 44
e 21 48
e 22 39
e 22 42
e 22 47
e 22 51
e 23 24
e 23 25
e 23 32
e 23 33
e 23 38
e 23 48
e 24 28
e 24 38
e 24 49
e 25 49
e 26 31
e 26 46
e 27 39
e 27 49
e 28 38
e 28 46
e 28 49
e 28 50
e 28 51
e 29 44
e 30 36
e 30 44
e 30 45
e 30 50
e 31 35
e 32 44
e 33 36
e 33 40
e 33 44
e 34 43
e 34 49
e 35 51
e 36 48
e 37 44
e 38 40
e 38 45
e 38 51
e 39 50
e 42 43
e 42 47
e 45 46
e 46 50
